(declare-fun Constructed_Argument_t () String)
(declare-fun CreateAsClass () Bool)
(declare-fun Constructed_Argument_elements_routes_0_t () String)
(declare-fun Constructed_Argument_elements_routes_0 () String)
(assert (= Constructed_Argument_t "object"))
(assert (not CreateAsClass))
(assert (= Constructed_Argument_elements_routes_0_t "string"))
(assert (= Constructed_Argument_elements_routes_0 ""))
(check-sat)
